32      4       
13      15      13      16      
0       0       0       0       0       3       2       3       4       
7       6       0       0       0       3       6       8       9       
10      0       8       0       0       3       7       11      18      
2       4       0       0       0       3       5       7       8       
3       5       0       0       0       3       21      22      24      
2       6       0       0       0       2       7       10      
1       0       0       0       10      2       12      14      
3       0       9       0       0       3       13      15      20      
5       9       0       0       0       3       10      12      14      
10      0       0       1       0       3       15      16      20      
9       0       0       0       3       2       14      24      
9       0       5       0       0       3       16      21      25      
3       0       0       2       0       3       17      19      21      
5       0       0       0       10      2       29      30      
1       0       0       0       8       1       17      
6       6       0       0       0       2       19      28      
6       2       0       0       0       3       18      24      28      
9       0       0       0       9       3       22      23      25      
5       0       7       0       0       2       23      27      
2       7       0       0       0       3       22      26      30      
9       0       5       0       0       3       23      26      28      
3       1       0       0       0       2       27      31      
5       0       0       4       0       1       30      
8       3       0       0       0       2       25      26      
2       0       0       6       0       1       29      
3       9       0       0       0       2       27      31      
10      0       0       10      0       1       29      
2       0       0       3       0       1       31      
8       0       0       0       5       1       32      
1       0       0       3       0       1       32      
9       0       0       0       6       1       32      
0       0       0       0       0       0       